c Random generated cnf formula, satisfiable: false
p cnf 10 50
-4 10 6 0
1 -9 6 0
10 7 4 0
3 8 -7 0
-2 -3 6 0
-8 3 -1 0
6 2 -7 0
1 -3 -6 0
-7 -10 4 0
-8 2 7 0
2 -5 6 0
5 -6 10 0
10 -6 3 0
1 7 10 0
-10 -2 -3 0
3 -6 -2 0
3 10 -7 0
6 10 3 0
8 2 3 0
5 7 6 0
-9 -1 -5 0
5 3 -7 0
-7 4 5 0
-2 1 -4 0
-6 -3 -8 0
5 -7 4 0
7 -6 2 0
8 2 7 0
8 -4 -3 0
8 -2 -7 0
-2 -1 -7 0
3 5 7 0
5 -6 1 0
-2 7 -3 0
2 -8 3 0
4 -10 3 0
7 4 -1 0
8 1 4 0
8 -2 7 0
8 -5 10 0
-4 -9 6 0
8 -10 -2 0
6 10 -9 0
-4 5 -9 0
-8 -2 10 0
-9 -2 -1 0
-10 -7 -5 0
-3 6 10 0
-1 8 2 0
9 5 -10 0
